CMD:
./solvers/bin/cadical --plain --no-reduce -t 1600 ./data/cnfs//texaspimainp01/texaspimainp01.75.cnf

c --- [ banner ] -------------------------------------------------------------
c 
c CaDiCaL SAT Solver
c Copyright (c) 2016-2024
c A. Biere, M. Fleury, N. Froleyks, K. Fazekas, F. Pollitt, T. Faller
c JKU Linz, University of Freiburg, TU Wien
c 
c Version 2.1.3 5296d3d2a9bf48c154ab2acb5e44625776d821bf
c g++ (Gentoo 12.3.1_p20230526 p2) 12.3.1 20230526 -Wall -Wextra -O3 -DNDEBUG
c Sat Aug 9 07:26:21 PDT 2025 Linux cedar2.int.cedar.computecanada.ca 5.14.0-362.24.2.el9_3.x86_64 x86_64
c 
c --- [ limit ] --------------------------------------------------------------
c 
c setting time limit to 1600 seconds real time (due to '-t 1600')
c 
c --- [ parsing input ] ------------------------------------------------------
c 
c reading DIMACS file from './data/cnfs//texaspimainp01/texaspimainp01.75.cnf'
c opening file to read './data/cnfs//texaspimainp01/texaspimainp01.75.cnf'
c found 'p cnf 608467 1821503' header
c parsed 1821503 clauses in 0.29 seconds process time
c 
c --- [ options ] ------------------------------------------------------------
c 
c   --compact=false                (different from default 'true')
c   --decompose=false              (different from default 'true')
c   --deduplicate=false            (different from default 'true')
c   --elim=false                   (different from default 'true')
c   --probe=false                  (different from default 'true')
c   --reduce=false                 (different from default 'true')
c   --subsume=false                (different from default 'true')
c   --ternary=false                (different from default 'true')
c   --transred=false               (different from default 'true')
c   --vivify=false                 (different from default 'true')
c 
c --- [ solving ] ------------------------------------------------------------
c 
c time measured in process time since initialization
c 
c  seconds   reductions  redundant   irredundant
c          MB    restarts       trail        variables
c           level   conflicts       glue           remaining
c 
c *  0.29 274  0 0   0    0    0  0% 0 1711131 556520 91%
c {  0.30 275  0 0   0    0    0  0% 0 1711131 556520 91%
c i  0.32 275 137 0   0   45   44  9% 2 1711131 556506 91%
c i  0.44 275 235 0  42  355  333 11% 2 1711131 556483 91%
c i  0.46 276 209 0  47  490  466 11% 2 1711131 556464 91%
c i  0.49 276 179 0  99  676  641 11% 2 1711131 556463 91%
c i  0.49 276 175 0 104  692  655 11% 2 1711131 556394 91%
c i  0.49 276 175 0 104  693  655 11% 2 1711131 556377 91%
c i  0.49 276 166 0 114  731  688 11% 2 1711131 556371 91%
c i  0.49 276 164 0 118  745  700 11% 2 1711131 556369 91%
c i  0.53 276 175 0 119  900  837 11% 2 1711131 556367 91%
c }  0.54 276 159 0 131 1000  934 11% 2 1711131 556367 91%
c [  0.54 276  0 0 131 1000  934  0% 0 1711131 556367 91%
c i  0.55 276 16 0 131 1001  934 14% 0 1711131 556360 91%
c O  0.55 276  8 0 131 1002  934 14% 0 1711131 556360 91%
c i  0.55 276  8 0 131 1002  934 14% 0 1711131 556351 91%
c i  0.56 276  6 0 131 1003  934 14% 0 1711131 556340 91%
c i  0.56 276  5 0 131 1004  934 14% 0 1711131 556333 91%
c i  0.56 276  4 0 131 1005  934 14% 0 1711131 556324 91%
c i  0.56 276  3 0 131 1006  934 14% 0 1711131 556313 91%
c 
c  seconds   reductions  redundant   irredundant
c          MB    restarts       trail        variables
c           level   conflicts       glue           remaining
c 
c i  0.57 276  3 0 131 1007  934 14% 0 1711131 556310 91%
c i  0.57 276  3 0 131 1008  934 14% 0 1711131 556303 91%
c i  0.57 276  3 0 131 1009  934 14% 0 1711131 556300 91%
c i  0.58 276  2 0 131 1010  934 14% 0 1711131 556293 91%
c i  0.58 276  2 0 131 1011  934 14% 0 1711131 556290 91%
c i  0.69 282 154 0 131 1024  946 50% 1 1711131 556289 91%
c i  0.70 282 296 0 131 1134 1046 79% 3 1711131 556288 91%
c i  0.70 282 297 0 131 1139 1048 79% 3 1711131 556287 91%
c i  0.72 282 319 0 131 1427 1313 84% 3 1711131 556282 91%
c i  0.74 282 322 0 131 1607 1479 85% 3 1711131 556277 91%
c i  0.74 282 325 0 131 1694 1556 85% 3 1711131 556275 91%
c i  0.83 282 287 0 132 2214 2041 76% 4 1711131 556261 91%
c i  0.85 282 259 0 132 2348 2165 69% 4 1711131 556259 91%
c i  0.87 282 229 0 132 2626 2430 60% 4 1711131 556257 91%
c i  0.88 282 219 0 132 2742 2536 57% 4 1711131 556252 91%
c i  0.88 282 219 0 132 2747 2540 57% 4 1711131 556246 91%
c ]  1.02 282 231 0 132 3000 2773 58% 4 1711131 556245 91%
c {  1.02 282 159 0 132 3000 2773 11% 2 1711131 556245 91%
c F  1.04 282 159 0 133 3003 2776 11% 2 1711131 556245 91%
c i  1.07 282 127 0 215 3299 3046 11% 2 1711131 556244 91%
c 
c  seconds    reductions  redundant   irredundant
c          MB     restarts       trail        variables
c            level   conflicts       glue           remaining
c 
c i  1.13 282 138 0 229 3559 3300 12% 2 1711131 556242 91%
c i  1.13 282 138 0 229 3561 3301 12% 2 1711131 556240 91%
c i  1.13 282 138 0 229 3565 3302 12% 2 1711131 556238 91%
c i  1.14 282 133 0 240 3654 3379 12% 2 1711131 556237 91%
... skipped 169 lines ...
c            level     conflicts        glue           remaining
c 
c i 10.82 288 154 0 2290 29754 26991 21% 4 1609983 550887 91%
c i 10.82 288 154 0 2290 29758 26993 21% 4 1609983 550884 91%
c i 10.82 288 154 0 2290 29759 26993 21% 4 1609983 550882 91%
c i 10.82 288 154 0 2290 29780 27011 21% 4 1609983 550881 91%
c i 10.87 288 152 0 2290 30122 27328 21% 4 1609983 550879 91%
c i 10.87 288 152 0 2290 30138 27343 21% 4 1609983 550874 91%
c } 11.04 288 152 0 2302 31000 28149 22% 3 1609983 550874 91%
c [ 11.04 288 103 0 2302 31000 28149 25% 4 1609983 550874 91%
c i 11.64 288 99 0 2302 32079 29148 24% 4 1609983 550873 91%
c i 11.66 288 99 0 2302 32122 29183 24% 4 1609983 550872 91%
c i 11.81 288 98 0 2302 32323 29367 24% 4 1609983 550871 91%
c i 12.29 288 97 0 2302 32700 29710 24% 4 1609983 550869 91%
c i 12.78 288 96 0 2302 33138 30096 24% 4 1609983 550868 91%
c i 13.37 288 95 0 2303 33614 30521 24% 4 1609983 550866 91%
c i 13.37 288 95 0 2303 33654 30557 24% 4 1609983 550865 91%
c i 13.43 288 94 0 2303 34011 30887 24% 4 1609983 550421 90%
c i 13.43 288 94 0 2303 34013 30888 24% 4 1609983 550417 90%
c i 13.51 288 94 0 2303 34066 30936 24% 4 1609983 550411 90%
c i 13.53 288 95 0 2303 34262 31122 24% 4 1609983 550405 90%
c i 13.53 288 95 0 2303 34302 31155 24% 4 1609983 550400 90%
c 
c  seconds   reductions     redundant   irredundant
c          MB    restarts          trail        variables
c           level     conflicts        glue           remaining
c 
c i 13.53 288 95 0 2303 34320 31170 24% 4 1609983 550394 90%
c i 13.53 288 95 0 2303 34329 31177 24% 4 1609983 550388 90%
c i 13.59 288 96 0 2303 34654 31477 25% 4 1609983 550381 90%
c i 13.63 288 95 0 2304 34794 31606 24% 4 1609983 550155 90%
c i 13.63 288 95 0 2304 34806 31615 24% 4 1609983 550037 90%
c i 13.79 288 95 0 2304 35007 31798 25% 4 1609983 550030 90%
c i 13.80 288 95 0 2304 35101 31883 25% 4 1609983 550029 90%
c i 13.91 288 96 0 2304 35370 32137 25% 4 1609983 550014 90%
c i 14.43 288 95 0 2305 35943 32663 26% 4 1609983 550007 90%
c B 14.50 288 96 0 2305 36012 32725 26% 4 1609983 550007 90%
c i 14.83 288 98 0 2305 36471 33121 26% 4 1609983 549209 90%
c i 14.84 288 98 0 2305 36498 33144 27% 4 1609983 549192 90%
c i 15.46 288 97 0 2305 37523 34084 28% 4 1609983 549186 90%
c i 15.95 288 95 0 2306 38200 34684 28% 4 1609983 549069 90%
c i 17.23 288 85 0 2308 40567 36656 28% 4 1609983 549037 90%
c i 17.25 288 85 0 2308 40647 36728 28% 4 1609983 549032 90%
c i 17.25 288 85 0 2308 40661 36739 28% 4 1609983 549030 90%
c ] 17.44 288 83 0 2308 41035 37036 28% 4 1609983 391848 64%
c 0 17.44 288 83 0 2308 41035 37036 28% 4 1609983 391848 64%
c 
c --- [ result ] -------------------------------------------------------------
c 
s UNSATISFIABLE
c 
c --- [ run-time profiling ] -------------------------------------------------
c 
c process time taken by individual solving procedures
c (percentage relative to process time for solving)
c 
c        17.15  100.00% search
c         8.65   50.44% stable
c         7.76   45.23% unstable
c         0.73    4.28% walk
c         0.29    1.69% parse
c         0.01    0.05% lucky
c         0.00    0.00% simplify
c   =================================
c        17.15   98.34% solve
c 
c last line shows process time for solving
c (percentage relative to total process time)
c 
c --- [ statistics ] ---------------------------------------------------------
c 
c chronological:             19663        47.92 %  of conflicts
c conflicts:                 41035      2392.65    per second
c decisions:                173170     10097.10    per second
c fixed:                    216619        35.60 %  of all variables
c learned:                   39485        96.22 %  per conflict
c learned_lits:             712900       100.00 %  learned literals
c minimized:                     0         0.00 %  learned literals
c shrunken:                 100047        14.03 %  learned literals
c minishrunken:             153752        21.57 %  learned literals
c otfs:                        339         0.83 %  of conflict
c propagations:          175888415        10.26 M  per second
c rephased:                      8      5129.38    interval
c restarts:                   2308        17.78    interval
c stabilizing:                   3        48.79 %  of conflicts
c subsumed:                   2116         0.12 %  of all clauses
c strengthened:                322         0.02 %  of all clauses
c walked:                        1     41035.00    interval
c 
c seconds are measured in process time for solving
c 
c --- [ resources ] ----------------------------------------------------------
c 
c total process time since initialization:        17.44    seconds
c total real time since initialization:           17.54    seconds
c maximum resident set size of process:          300.51    MB
c 
c --- [ shutting down ] ------------------------------------------------------
c 
c exit 20
